************************************************************************
file with basedata            : mm37_.bas
initial value random generator: 1458586117
************************************************************************
projects                      :  1
jobs (incl. supersource/sink ):  12
horizon                       :  78
RESOURCES
  - renewable                 :  2   R
  - nonrenewable              :  2   N
  - doubly constrained        :  0   D
************************************************************************
PROJECT INFORMATION:
pronr.  #jobs rel.date duedate tardcost  MPM-Time
    1     10      0       10        8       10
************************************************************************
PRECEDENCE RELATIONS:
jobnr.    #modes  #successors   successors
   1        1          3           2   3   4
   2        3          2           8  11
   3        3          1           5
   4        3          1           6
   5        3          3           6   7   8
   6        3          1          11
   7        3          2           9  10
   8        3          2           9  10
   9        3          1          12
  10        3          1          12
  11        3          1          12
  12        1          0        
************************************************************************
REQUESTS/DURATIONS:
jobnr. mode duration  R 1  R 2  N 1  N 2
------------------------------------------------------------------------
  1      1     0       0    0    0    0
  2      1     4       3    7   10    8
         2     7       3    6    7    7
         3     9       2    3    4    6
  3      1     3       7    8    4    9
         2     5       6    8    3    9
         3     6       5    8    3    9
  4      1     1       3    6    4    6
         2     2       3    4    3    5
         3     6       2    3    3    4
  5      1     4       1    5    2   10
         2     7       1    4    1    9
         3     8       1    2    1    9
  6      1     2       7    9    5   10
         2     7       7    6    5    6
         3    10       6    3    4    4
  7      1     1       9    6    5    7
         2     5       6    6    5    5
         3     6       6    3    4    1
  8      1     1       2    8   10    4
         2     8       2    7    7    4
         3    10       1    6    7    3
  9      1     2       5    8    8    8
         2     4       5    7    7    6
         3     6       4    5    7    6
 10      1     2       5    5    6    9
         2     8       3    5    6    6
         3     9       2    5    2    2
 11      1     1       7   10    9    9
         2     2       7    9    9    8
         3     8       2    9    7    8
 12      1     0       0    0    0    0
************************************************************************
RESOURCEAVAILABILITIES:
  R 1  R 2  N 1  N 2
    8   12   46   58
************************************************************************
MAXIMAL LAGS:
from  to  type  delay
    1   12   ES      0
    1    2   ES      0
    2   12   ES      0
    1    3   ES      0
    3   12   ES      0
    1    4   ES      0
    4   12   ES      0
    1    5   ES      0
    5   12   ES      0
    1    6   ES      0
    6   12   ES      0
    1    7   ES      0
    7   12   ES      0
    1    8   ES      0
    8   12   ES      0
    1    9   ES      0
    9   12   ES      0
    1   10   ES      0
   10   12   ES      0
    1   11   ES      0
   11   12   ES      0
    1   12   ES      0
    2    8   SS      2
    2    8   SE      1
    2    8   ES      1
    2    8   EE     -1
    2   11   SS      3
    2   11   SE     -2
    2   11   ES     -4
    2   11   EE      0
    3    5   SS    -12
    3    5   SE     -7
    3    5   ES      2
    3    5   EE     -5
    4    6   SS     -4
    4    6   SE      8
    4    6   ES    -10
    4    6   EE     -1
    5    6   SS    -10
    5    6   SE     -3
    5    6   ES      4
    5    6   EE      4
    5    7   SS      5
    5    7   SE      8
    5    7   ES    -10
    5    7   EE     -4
    5    8   SS     -5
    5    8   SE     -9
    5    8   ES     -9
    5    8   EE    -10
    6   11   SS     -1
    6   11   SE    -11
    6   11   ES      5
    6   11   EE     -6
    7    9   SS     -2
    7    9   SE     -6
    7    9   ES      9
    7    9   EE     -2
    7   10   SS     -4
    7   10   SE     -3
    7   10   ES     11
    7   10   EE     12
    8    9   SS      9
    8    9   SE     -4
    8    9   ES     -6
    8    9   EE     10
    8   10   SS      7
    8   10   SE     -8
    8   10   ES     12
    8   10   EE     10
************************************************************************
